168
109
69
82
105
122
146
118
156
132
192
68
100
116
114
121
120
171
78
117
162
106
68
100
84
123
155
105
77
101
73
130
136
128
70
141
127
172
130
240
209
135
135
143
114
221
88
152
103
97
207
73
137
94
170
87
73
88
151
153
243
155
84
148
74
138
113
292
160
180
110
77
156
94
128
159
88
71
100
259
118
233
154
152
155
196
97
134
59
83
122
103
90
175
118
124
160
0
128
128
